\ Model Model5
\ LP format - for model browsing. Use MPS format to capture full model detail.
Minimize
  0 x[j1l10_0_j2l20_0] + 0 x[j1l10_0_j2l20_1] + 0 x[j1l10_0_j2l20_2]
   + 0 x[j1l10_0_j2l20_3] + 0 x[j1l10_0_j2l20_4] + 0 x[j1l10_0_j2l21_0]
   + 0 x[j1l10_0_j2l21_2] + 0 x[j1l10_0_j2l21_3] + 0 x[j1l10_0_j2l21_4]
   + 0 x[j1l10_0_j2l22_0] + 0 x[j1l10_0_j2l22_1] + 0 x[j1l10_0_j2l22_2]
   + 0 x[j1l10_0_j2l22_4] + 0 x[j1l10_0_j2l23_0] + 0 x[j1l10_0_j2l23_1]
   + 0 x[j1l10_0_j2l23_2] + 0 x[j1l10_0_j2l23_3] + 0 x[j1l10_0_j2l24_0]
   + 0 x[j1l10_0_j2l24_1] + 0 x[j1l10_0_j2l24_2] + 0 x[j1l10_0_j2l24_3]
   + 0 x[j1l10_0_j2l24_4] + 0 x[j1l10_1_j2l20_0] + 0 x[j1l10_1_j2l20_1]
   + 0 x[j1l10_1_j2l20_2] + 0 x[j1l10_1_j2l20_3] + 0 x[j1l10_1_j2l20_4]
   + 0 x[j1l10_1_j2l21_0] + 0 x[j1l10_1_j2l21_1] + 0 x[j1l10_1_j2l21_2]
   + 0 x[j1l10_1_j2l21_4] + 0 x[j1l10_1_j2l22_1] + 0 x[j1l10_1_j2l22_2]
   + 0 x[j1l10_1_j2l22_3] + 0 x[j1l10_1_j2l22_4] + 0 x[j1l10_1_j2l23_1]
   + 0 x[j1l10_1_j2l23_2] + 0 x[j1l10_1_j2l23_3] + 0 x[j1l10_1_j2l24_1]
   + 0 x[j1l10_1_j2l24_3] + 0 x[j1l10_1_j2l24_4] + 0 x[j1l10_2_j2l20_0]
   + 0 x[j1l10_2_j2l20_1] + 0 x[j1l10_2_j2l20_2] + 0 x[j1l10_2_j2l20_3]
   + 0 x[j1l10_2_j2l20_4] + 0 x[j1l10_2_j2l21_0] + 0 x[j1l10_2_j2l21_1]
   + 0 x[j1l10_2_j2l21_3] + 0 x[j1l10_2_j2l21_4] + 0 x[j1l10_2_j2l22_0]
   + 0 x[j1l10_2_j2l22_2] + 0 x[j1l10_2_j2l22_3] + 0 x[j1l10_2_j2l22_4]
   + 0 x[j1l10_2_j2l23_0] + 0 x[j1l10_2_j2l23_1] + 0 x[j1l10_2_j2l23_3]
   + 0 x[j1l10_2_j2l24_0] + 0 x[j1l10_2_j2l24_1] + 0 x[j1l10_2_j2l24_2]
   + 0 x[j1l10_2_j2l24_4] + 0 x[j1l10_3_j2l20_0] + 0 x[j1l10_3_j2l20_1]
   + 0 x[j1l10_3_j2l20_2] + 0 x[j1l10_3_j2l20_3] + 0 x[j1l10_3_j2l20_4]
   + 0 x[j1l10_3_j2l21_1] + 0 x[j1l10_3_j2l21_2] + 0 x[j1l10_3_j2l21_3]
   + 0 x[j1l10_3_j2l21_4] + 0 x[j1l10_3_j2l22_0] + 0 x[j1l10_3_j2l22_1]
   + 0 x[j1l10_3_j2l22_3] + 0 x[j1l10_3_j2l22_4] + 0 x[j1l10_3_j2l23_0]
   + 0 x[j1l10_3_j2l23_2] + 0 x[j1l10_3_j2l23_3] + 0 x[j1l10_3_j2l24_0]
   + 0 x[j1l10_3_j2l24_2] + 0 x[j1l10_3_j2l24_3] + 0 x[j1l10_3_j2l24_4]
   + 0 x[j1l10_4_j2l20_0] + 0 x[j1l10_4_j2l20_1] + 0 x[j1l10_4_j2l20_2]
   + 0 x[j1l10_4_j2l20_3] + 0 x[j1l10_4_j2l20_4] + 0 x[j1l10_4_j2l21_0]
   + 0 x[j1l10_4_j2l21_1] + 0 x[j1l10_4_j2l21_2] + 0 x[j1l10_4_j2l21_3]
   + 0 x[j1l10_4_j2l22_0] + 0 x[j1l10_4_j2l22_1] + 0 x[j1l10_4_j2l22_2]
   + 0 x[j1l10_4_j2l22_3] + 0 x[j1l10_4_j2l23_0] + 0 x[j1l10_4_j2l23_1]
   + 0 x[j1l10_4_j2l23_2] + 0 x[j1l10_4_j2l24_0] + 0 x[j1l10_4_j2l24_1]
   + 0 x[j1l10_4_j2l24_2] + 0 x[j1l10_4_j2l24_3] + 0 x[j1l11_0_j2l21_0]
   + 0 x[j1l11_0_j2l21_1] + 0 x[j1l11_0_j2l21_2] + 0 x[j1l11_0_j2l21_3]
   + 0 x[j1l11_0_j2l21_4] + 0 x[j1l11_0_j2l22_0] + 0 x[j1l11_0_j2l22_1]
   + 0 x[j1l11_0_j2l22_3] + 0 x[j1l11_0_j2l22_4] + 0 x[j1l11_0_j2l23_0]
   + 0 x[j1l11_0_j2l23_2] + 0 x[j1l11_0_j2l23_3] + 0 x[j1l11_0_j2l24_0]
   + 0 x[j1l11_0_j2l24_2] + 0 x[j1l11_0_j2l24_3] + 0 x[j1l11_0_j2l24_4]
   + 0 x[j1l11_1_j2l21_0] + 0 x[j1l11_1_j2l21_1] + 0 x[j1l11_1_j2l21_2]
   + 0 x[j1l11_1_j2l21_3] + 0 x[j1l11_1_j2l21_4] + 0 x[j1l11_1_j2l22_0]
   + 0 x[j1l11_1_j2l22_1] + 0 x[j1l11_1_j2l22_2] + 0 x[j1l11_1_j2l22_4]
   + 0 x[j1l11_1_j2l23_0] + 0 x[j1l11_1_j2l23_1] + 0 x[j1l11_1_j2l23_2]
   + 0 x[j1l11_1_j2l23_3] + 0 x[j1l11_1_j2l24_0] + 0 x[j1l11_1_j2l24_1]
   + 0 x[j1l11_1_j2l24_2] + 0 x[j1l11_1_j2l24_3] + 0 x[j1l11_1_j2l24_4]
   + 0 x[j1l11_2_j2l21_0] + 0 x[j1l11_2_j2l21_1] + 0 x[j1l11_2_j2l21_2]
   + 0 x[j1l11_2_j2l21_3] + 0 x[j1l11_2_j2l21_4] + 0 x[j1l11_2_j2l22_0]
   + 0 x[j1l11_2_j2l22_2] + 0 x[j1l11_2_j2l22_3] + 0 x[j1l11_2_j2l22_4]
   + 0 x[j1l11_2_j2l23_0] + 0 x[j1l11_2_j2l23_1] + 0 x[j1l11_2_j2l23_3]
   + 0 x[j1l11_2_j2l24_0] + 0 x[j1l11_2_j2l24_1] + 0 x[j1l11_2_j2l24_2]
   + 0 x[j1l11_2_j2l24_4] + 0 x[j1l11_3_j2l21_0] + 0 x[j1l11_3_j2l21_1]
   + 0 x[j1l11_3_j2l21_2] + 0 x[j1l11_3_j2l21_3] + 0 x[j1l11_3_j2l21_4]
   + 0 x[j1l11_3_j2l22_1] + 0 x[j1l11_3_j2l22_2] + 0 x[j1l11_3_j2l22_3]
   + 0 x[j1l11_3_j2l22_4] + 0 x[j1l11_3_j2l23_1] + 0 x[j1l11_3_j2l23_2]
   + 0 x[j1l11_3_j2l23_3] + 0 x[j1l11_3_j2l24_1] + 0 x[j1l11_3_j2l24_3]
   + 0 x[j1l11_3_j2l24_4] + 0 x[j1l11_4_j2l21_0] + 0 x[j1l11_4_j2l21_1]
   + 0 x[j1l11_4_j2l21_2] + 0 x[j1l11_4_j2l21_3] + 0 x[j1l11_4_j2l21_4]
   + 0 x[j1l11_4_j2l22_0] + 0 x[j1l11_4_j2l22_1] + 0 x[j1l11_4_j2l22_2]
   + 0 x[j1l11_4_j2l22_3] + 0 x[j1l11_4_j2l23_0] + 0 x[j1l11_4_j2l23_1]
   + 0 x[j1l11_4_j2l23_2] + 0 x[j1l11_4_j2l24_0] + 0 x[j1l11_4_j2l24_1]
   + 0 x[j1l11_4_j2l24_2] + 0 x[j1l11_4_j2l24_3] + 0 x[j1l12_0_j2l22_0]
   + 0 x[j1l12_0_j2l22_1] + 0 x[j1l12_0_j2l22_2] + 0 x[j1l12_0_j2l22_3]
   + 0 x[j1l12_0_j2l22_4] + 0 x[j1l12_0_j2l23_1] + 0 x[j1l12_0_j2l23_2]
   + 0 x[j1l12_0_j2l23_3] + 0 x[j1l12_0_j2l24_1] + 0 x[j1l12_0_j2l24_3]
   + 0 x[j1l12_0_j2l24_4] + 0 x[j1l12_1_j2l22_0] + 0 x[j1l12_1_j2l22_1]
   + 0 x[j1l12_1_j2l22_2] + 0 x[j1l12_1_j2l22_3] + 0 x[j1l12_1_j2l22_4]
   + 0 x[j1l12_1_j2l23_0] + 0 x[j1l12_1_j2l23_1] + 0 x[j1l12_1_j2l23_3]
   + 0 x[j1l12_1_j2l24_0] + 0 x[j1l12_1_j2l24_1] + 0 x[j1l12_1_j2l24_2]
   + 0 x[j1l12_1_j2l24_4] + 0 x[j1l12_2_j2l22_0] + 0 x[j1l12_2_j2l22_1]
   + 0 x[j1l12_2_j2l22_2] + 0 x[j1l12_2_j2l22_3] + 0 x[j1l12_2_j2l22_4]
   + 0 x[j1l12_2_j2l23_0] + 0 x[j1l12_2_j2l23_2] + 0 x[j1l12_2_j2l23_3]
   + 0 x[j1l12_2_j2l24_0] + 0 x[j1l12_2_j2l24_2] + 0 x[j1l12_2_j2l24_3]
   + 0 x[j1l12_2_j2l24_4] + 0 x[j1l12_3_j2l22_0] + 0 x[j1l12_3_j2l22_1]
   + 0 x[j1l12_3_j2l22_2] + 0 x[j1l12_3_j2l22_3] + 0 x[j1l12_3_j2l22_4]
   + 0 x[j1l12_3_j2l23_0] + 0 x[j1l12_3_j2l23_1] + 0 x[j1l12_3_j2l23_2]
   + 0 x[j1l12_3_j2l23_3] + 0 x[j1l12_3_j2l24_0] + 0 x[j1l12_3_j2l24_1]
   + 0 x[j1l12_3_j2l24_2] + 0 x[j1l12_3_j2l24_3] + 0 x[j1l12_3_j2l24_4]
   + 0 x[j1l12_4_j2l22_0] + 0 x[j1l12_4_j2l22_1] + 0 x[j1l12_4_j2l22_2]
   + 0 x[j1l12_4_j2l22_3] + 0 x[j1l12_4_j2l22_4] + 0 x[j1l12_4_j2l23_0]
   + 0 x[j1l12_4_j2l23_1] + 0 x[j1l12_4_j2l23_2] + 0 x[j1l12_4_j2l24_0]
   + 0 x[j1l12_4_j2l24_1] + 0 x[j1l12_4_j2l24_2] + 0 x[j1l12_4_j2l24_3]
   + 0 x[j1l13_0_j2l23_0] + 0 x[j1l13_0_j2l23_1] + 0 x[j1l13_0_j2l23_2]
   + 0 x[j1l13_0_j2l23_3] + 0 x[j1l13_0_j2l24_1] + 0 x[j1l13_0_j2l24_3]
   + 0 x[j1l13_0_j2l24_4] + 0 x[j1l13_1_j2l23_0] + 0 x[j1l13_1_j2l23_1]
   + 0 x[j1l13_1_j2l23_2] + 0 x[j1l13_1_j2l23_3] + 0 x[j1l13_1_j2l24_0]
   + 0 x[j1l13_1_j2l24_2] + 0 x[j1l13_1_j2l24_3] + 0 x[j1l13_1_j2l24_4]
   + 0 x[j1l13_2_j2l23_0] + 0 x[j1l13_2_j2l23_1] + 0 x[j1l13_2_j2l23_2]
   + 0 x[j1l13_2_j2l23_3] + 0 x[j1l13_2_j2l24_0] + 0 x[j1l13_2_j2l24_1]
   + 0 x[j1l13_2_j2l24_2] + 0 x[j1l13_2_j2l24_4] + 0 x[j1l13_3_j2l23_0]
   + 0 x[j1l13_3_j2l23_1] + 0 x[j1l13_3_j2l23_2] + 0 x[j1l13_3_j2l23_3]
   + 0 x[j1l13_3_j2l24_0] + 0 x[j1l13_3_j2l24_1] + 0 x[j1l13_3_j2l24_2]
   + 0 x[j1l13_3_j2l24_3] + 0 x[j1l14_0_j2l24_0] + 0 x[j1l14_0_j2l24_1]
   + 0 x[j1l14_0_j2l24_3] + 0 x[j1l14_0_j2l24_4] + 0 x[j1l14_1_j2l24_0]
   + 0 x[j1l14_1_j2l24_1] + 0 x[j1l14_1_j2l24_2] + 0 x[j1l14_1_j2l24_3]
   + 0 x[j1l14_1_j2l24_4] + 0 x[j1l14_2_j2l24_1] + 0 x[j1l14_2_j2l24_2]
   + 0 x[j1l14_2_j2l24_3] + 0 x[j1l14_2_j2l24_4] + 0 x[j1l14_3_j2l24_0]
   + 0 x[j1l14_3_j2l24_1] + 0 x[j1l14_3_j2l24_2] + 0 x[j1l14_3_j2l24_3]
   + 0 x[j1l14_3_j2l24_4] + 0 x[j1l14_4_j2l24_0] + 0 x[j1l14_4_j2l24_1]
   + 0 x[j1l14_4_j2l24_2] + 0 x[j1l14_4_j2l24_3] + 0 x[j1l14_4_j2l24_4]
   + Z_FO
Subject To
 assignment_job0_stage0_constraint: y[j0_l0_i1] = 1
 assignment_job0_stage1_constraint: y[j0_l1_i0] = 1
 assignment_job0_stage2_constraint: y[j0_l2_i2] = 1
 assignment_job0_stage3_constraint: y[j0_l3_i3] = 1
 assignment_job0_stage4_constraint: y[j0_l4_i4] = 1
 assignment_job1_stage0_constraint: y[j1_l0_i3] = 1
 assignment_job1_stage1_constraint: y[j1_l1_i1] = 1
 assignment_job1_stage2_constraint: y[j1_l2_i2] = 1
 assignment_job1_stage3_constraint: y[j1_l3_i0] = 1
 assignment_job1_stage4_constraint: y[j1_l4_i4] = 1
 assignment_job2_stage0_constraint: y[j2_l0_i0] = 1
 assignment_job2_stage1_constraint: y[j2_l1_i2] = 1
 assignment_job2_stage2_constraint: y[j2_l2_i3] = 1
 assignment_job2_stage3_constraint: y[j2_l3_i1] = 1
 assignment_job2_stage4_constraint: y[j2_l4_i4] = 1
 assignment_job3_stage0_constraint: y[j3_l0_i0] = 1
 assignment_job3_stage1_constraint: y[j3_l1_i3] = 1
 assignment_job3_stage2_constraint: y[j3_l2_i2] = 1
 assignment_job3_stage3_constraint: y[j3_l3_i4] = 1
 assignment_job4_stage0_constraint: y[j4_l0_i0] = 1
 assignment_job4_stage1_constraint: y[j4_l1_i3] = 1
 assignment_job4_stage2_constraint: y[j4_l2_i0] = 1
 assignment_job4_stage3_constraint: y[j4_l3_i2] = 1
 assignment_job4_stage4_constraint: y[j4_l4_i4] = 1
 start_time_job0_stage0_machine1_constraint1: - 1e+08 y[j0_l0_i1]
   + s[j0_l0_i1] <= 0
 start_time_job0_stage1_machine0_constraint1: - 1e+08 y[j0_l1_i0]
   + s[j0_l1_i0] <= 0
 start_time_job0_stage2_machine2_constraint1: - 1e+08 y[j0_l2_i2]
   + s[j0_l2_i2] <= 0
 start_time_job0_stage3_machine3_constraint1: - 1e+08 y[j0_l3_i3]
   + s[j0_l3_i3] <= 0
 start_time_job0_stage4_machine4_constraint1: - 1e+08 y[j0_l4_i4]
   + s[j0_l4_i4] <= 0
 start_time_job1_stage0_machine3_constraint1: - 1e+08 y[j1_l0_i3]
   + s[j1_l0_i3] <= 0
 start_time_job1_stage1_machine1_constraint1: - 1e+08 y[j1_l1_i1]
   + s[j1_l1_i1] <= 0
 start_time_job1_stage2_machine2_constraint1: - 1e+08 y[j1_l2_i2]
   + s[j1_l2_i2] <= 0
 start_time_job1_stage3_machine0_constraint1: - 1e+08 y[j1_l3_i0]
   + s[j1_l3_i0] <= 0
 start_time_job1_stage4_machine4_constraint1: - 1e+08 y[j1_l4_i4]
   + s[j1_l4_i4] <= 0
 start_time_job2_stage0_machine0_constraint1: - 1e+08 y[j2_l0_i0]
   + s[j2_l0_i0] <= 0
 start_time_job2_stage1_machine2_constraint1: - 1e+08 y[j2_l1_i2]
   + s[j2_l1_i2] <= 0
 start_time_job2_stage2_machine3_constraint1: - 1e+08 y[j2_l2_i3]
   + s[j2_l2_i3] <= 0
 start_time_job2_stage3_machine1_constraint1: - 1e+08 y[j2_l3_i1]
   + s[j2_l3_i1] <= 0
 start_time_job2_stage4_machine4_constraint1: - 1e+08 y[j2_l4_i4]
   + s[j2_l4_i4] <= 0
 start_time_job3_stage0_machine0_constraint1: - 1e+08 y[j3_l0_i0]
   + s[j3_l0_i0] <= 0
 start_time_job3_stage1_machine3_constraint1: - 1e+08 y[j3_l1_i3]
   + s[j3_l1_i3] <= 0
 start_time_job3_stage2_machine2_constraint1: - 1e+08 y[j3_l2_i2]
   + s[j3_l2_i2] <= 0
 start_time_job3_stage3_machine4_constraint1: - 1e+08 y[j3_l3_i4]
   + s[j3_l3_i4] <= 0
 start_time_job4_stage0_machine0_constraint1: - 1e+08 y[j4_l0_i0]
   + s[j4_l0_i0] <= 0
 start_time_job4_stage1_machine3_constraint1: - 1e+08 y[j4_l1_i3]
   + s[j4_l1_i3] <= 0
 start_time_job4_stage2_machine0_constraint1: - 1e+08 y[j4_l2_i0]
   + s[j4_l2_i0] <= 0
 start_time_job4_stage3_machine2_constraint1: - 1e+08 y[j4_l3_i2]
   + s[j4_l3_i2] <= 0
 start_time_job4_stage4_machine4_constraint1: - 1e+08 y[j4_l4_i4]
   + s[j4_l4_i4] <= 0
 precedence_between_1,1_to_0,0_if_x_[j,l,h,z,i]=1: - 1e+08 y[j0_l0_i1]
   - 1e+08 y[j1_l1_i1] - 1e+08 x[j1l10_0_j2l21_1] + s[j0_l0_i1]
   - s[j1_l1_i1] >= -2.99998441e+08
 precedence_between_0,0_to_1,1_if_x_[j,l,h,z,i]=0: - 1e+08 y[j0_l0_i1]
   - 1e+08 y[j1_l1_i1] + 1e+08 x[j1l10_0_j2l21_1] - s[j0_l0_i1]
   + s[j1_l1_i1] >= -1.99998421e+08
 precedence_between_2,3_to_0,0_if_x_[j,l,h,z,i]=1: - 1e+08 y[j0_l0_i1]
   - 1e+08 y[j2_l3_i1] - 1e+08 x[j1l10_0_j2l22_3] + s[j0_l0_i1]
   - s[j2_l3_i1] >= -2.99997021e+08
 precedence_between_0,0_to_2,3_if_x_[j,l,h,z,i]=0: - 1e+08 y[j0_l0_i1]
   - 1e+08 y[j2_l3_i1] + 1e+08 x[j1l10_0_j2l22_3] - s[j0_l0_i1]
   + s[j2_l3_i1] >= -1.9999854e+08
 precedence_between_1,3_to_0,1_if_x_[j,l,h,z,i]=1: - 1e+08 y[j0_l1_i0]
   - 1e+08 y[j1_l3_i0] - 1e+08 x[j1l10_1_j2l21_3] + s[j0_l1_i0]
   - s[j1_l3_i0] >= -2.99998381e+08
 precedence_between_0,1_to_1,3_if_x_[j,l,h,z,i]=0: - 1e+08 y[j0_l1_i0]
   - 1e+08 y[j1_l3_i0] + 1e+08 x[j1l10_1_j2l21_3] - s[j0_l1_i0]
   + s[j1_l3_i0] >= -1.99998381e+08
 precedence_between_2,0_to_0,1_if_x_[j,l,h,z,i]=1: - 1e+08 y[j0_l1_i0]
   - 1e+08 y[j2_l0_i0] - 1e+08 x[j1l10_1_j2l22_0] + s[j0_l1_i0]
   - s[j2_l0_i0] >= -2.9999848e+08
 precedence_between_0,1_to_2,0_if_x_[j,l,h,z,i]=0: - 1e+08 y[j0_l1_i0]
   - 1e+08 y[j2_l0_i0] + 1e+08 x[j1l10_1_j2l22_0] - s[j0_l1_i0]
   + s[j2_l0_i0] >= -1.99998401e+08
 precedence_between_3,0_to_0,1_if_x_[j,l,h,z,i]=1: - 1e+08 y[j0_l1_i0]
   - 1e+08 y[j3_l0_i0] - 1e+08 x[j1l10_1_j2l23_0] + s[j0_l1_i0]
   - s[j3_l0_i0] >= -2.99996922e+08
 precedence_between_0,1_to_3,0_if_x_[j,l,h,z,i]=0: - 1e+08 y[j0_l1_i0]
   - 1e+08 y[j3_l0_i0] + 1e+08 x[j1l10_1_j2l23_0] - s[j0_l1_i0]
   + s[j3_l0_i0] >= -1.99998421e+08
 precedence_between_4,0_to_0,1_if_x_[j,l,h,z,i]=1: - 1e+08 y[j0_l1_i0]
   - 1e+08 y[j4_l0_i0] - 1e+08 x[j1l10_1_j2l24_0] + s[j0_l1_i0]
   - s[j4_l0_i0] >= -2.999985e+08
 precedence_between_0,1_to_4,0_if_x_[j,l,h,z,i]=0: - 1e+08 y[j0_l1_i0]
   - 1e+08 y[j4_l0_i0] + 1e+08 x[j1l10_1_j2l24_0] - s[j0_l1_i0]
   + s[j4_l0_i0] >= -1.99998461e+08
 precedence_between_4,2_to_0,1_if_x_[j,l,h,z,i]=1: - 1e+08 y[j0_l1_i0]
   - 1e+08 y[j4_l2_i0] - 1e+08 x[j1l10_1_j2l24_2] + s[j0_l1_i0]
   - s[j4_l2_i0] >= -2.99998362e+08
 precedence_between_0,1_to_4,2_if_x_[j,l,h,z,i]=0: - 1e+08 y[j0_l1_i0]
   - 1e+08 y[j4_l2_i0] + 1e+08 x[j1l10_1_j2l24_2] - s[j0_l1_i0]
   + s[j4_l2_i0] >= -1.99998401e+08
 precedence_between_1,2_to_0,2_if_x_[j,l,h,z,i]=1: - 1e+08 y[j0_l2_i2]
   - 1e+08 y[j1_l2_i2] - 1e+08 x[j1l10_2_j2l21_2] + s[j0_l2_i2]
   - s[j1_l2_i2] >= -2.99998362e+08
 precedence_between_0,2_to_1,2_if_x_[j,l,h,z,i]=0: - 1e+08 y[j0_l2_i2]
   - 1e+08 y[j1_l2_i2] + 1e+08 x[j1l10_2_j2l21_2] - s[j0_l2_i2]
   + s[j1_l2_i2] >= -1.99996922e+08
 precedence_between_2,1_to_0,2_if_x_[j,l,h,z,i]=1: - 1e+08 y[j0_l2_i2]
   - 1e+08 y[j2_l1_i2] - 1e+08 x[j1l10_2_j2l22_1] + s[j0_l2_i2]
   - s[j2_l1_i2] >= -2.9999848e+08
 precedence_between_0,2_to_2,1_if_x_[j,l,h,z,i]=0: - 1e+08 y[j0_l2_i2]
   - 1e+08 y[j2_l1_i2] + 1e+08 x[j1l10_2_j2l22_1] - s[j0_l2_i2]
   + s[j2_l1_i2] >= -1.9999704e+08
 precedence_between_3,2_to_0,2_if_x_[j,l,h,z,i]=1: - 1e+08 y[j0_l2_i2]
   - 1e+08 y[j3_l2_i2] - 1e+08 x[j1l10_2_j2l23_2] + s[j0_l2_i2]
   - s[j3_l2_i2] >= -2.99997021e+08
 precedence_between_0,2_to_3,2_if_x_[j,l,h,z,i]=0: - 1e+08 y[j0_l2_i2]
   - 1e+08 y[j3_l2_i2] + 1e+08 x[j1l10_2_j2l23_2] - s[j0_l2_i2]
   + s[j3_l2_i2] >= -1.99996941e+08
 precedence_between_4,3_to_0,2_if_x_[j,l,h,z,i]=1: - 1e+08 y[j0_l2_i2]
   - 1e+08 y[j4_l3_i2] - 1e+08 x[j1l10_2_j2l24_3] + s[j0_l2_i2]
   - s[j4_l3_i2] >= -2.99998441e+08
 precedence_between_0,2_to_4,3_if_x_[j,l,h,z,i]=0: - 1e+08 y[j0_l2_i2]
   - 1e+08 y[j4_l3_i2] + 1e+08 x[j1l10_2_j2l24_3] - s[j0_l2_i2]
   + s[j4_l3_i2] >= -1.9999706e+08
 precedence_between_1,0_to_0,3_if_x_[j,l,h,z,i]=1: - 1e+08 y[j0_l3_i3]
   - 1e+08 y[j1_l0_i3] - 1e+08 x[j1l10_3_j2l21_0] + s[j0_l3_i3]
   - s[j1_l0_i3] >= -2.9999852e+08
 precedence_between_0,3_to_1,0_if_x_[j,l,h,z,i]=0: - 1e+08 y[j0_l3_i3]
   - 1e+08 y[j1_l0_i3] + 1e+08 x[j1l10_3_j2l21_0] - s[j0_l3_i3]
   + s[j1_l0_i3] >= -1.9999706e+08
 precedence_between_2,2_to_0,3_if_x_[j,l,h,z,i]=1: - 1e+08 y[j0_l3_i3]
   - 1e+08 y[j2_l2_i3] - 1e+08 x[j1l10_3_j2l22_2] + s[j0_l3_i3]
   - s[j2_l2_i3] >= -2.9999564e+08
 precedence_between_0,3_to_2,2_if_x_[j,l,h,z,i]=0: - 1e+08 y[j0_l3_i3]
   - 1e+08 y[j2_l2_i3] + 1e+08 x[j1l10_3_j2l22_2] - s[j0_l3_i3]
   + s[j2_l2_i3] >= -1.9999708e+08
 precedence_between_3,1_to_0,3_if_x_[j,l,h,z,i]=1: - 1e+08 y[j0_l3_i3]
   - 1e+08 y[j3_l1_i3] - 1e+08 x[j1l10_3_j2l23_1] + s[j0_l3_i3]
   - s[j3_l1_i3] >= -2.99996922e+08
 precedence_between_0,3_to_3,1_if_x_[j,l,h,z,i]=0: - 1e+08 y[j0_l3_i3]
   - 1e+08 y[j3_l1_i3] + 1e+08 x[j1l10_3_j2l23_1] - s[j0_l3_i3]
   + s[j3_l1_i3] >= -1.99996922e+08
 precedence_between_4,1_to_0,3_if_x_[j,l,h,z,i]=1: - 1e+08 y[j0_l3_i3]
   - 1e+08 y[j4_l1_i3] - 1e+08 x[j1l10_3_j2l24_1] + s[j0_l3_i3]
   - s[j4_l1_i3] >= -2.99998381e+08
 precedence_between_0,3_to_4,1_if_x_[j,l,h,z,i]=0: - 1e+08 y[j0_l3_i3]
   - 1e+08 y[j4_l1_i3] + 1e+08 x[j1l10_3_j2l24_1] - s[j0_l3_i3]
   + s[j4_l1_i3] >= -1.99997021e+08
 precedence_between_1,4_to_0,4_if_x_[j,l,h,z,i]=1: - 1e+08 y[j0_l4_i4]
   - 1e+08 y[j1_l4_i4] - 1e+08 x[j1l10_4_j2l21_4] + s[j0_l4_i4]
   - s[j1_l4_i4] >= -2.99998421e+08
 precedence_between_0,4_to_1,4_if_x_[j,l,h,z,i]=0: - 1e+08 y[j0_l4_i4]
   - 1e+08 y[j1_l4_i4] + 1e+08 x[j1l10_4_j2l21_4] - s[j0_l4_i4]
   + s[j1_l4_i4] >= -1.99998362e+08
 precedence_between_2,4_to_0,4_if_x_[j,l,h,z,i]=1: - 1e+08 y[j0_l4_i4]
   - 1e+08 y[j2_l4_i4] - 1e+08 x[j1l10_4_j2l22_4] + s[j0_l4_i4]
   - s[j2_l4_i4] >= -2.9999852e+08
 precedence_between_0,4_to_2,4_if_x_[j,l,h,z,i]=0: - 1e+08 y[j0_l4_i4]
   - 1e+08 y[j2_l4_i4] + 1e+08 x[j1l10_4_j2l22_4] - s[j0_l4_i4]
   + s[j2_l4_i4] >= -1.999985e+08
 precedence_between_3,3_to_0,4_if_x_[j,l,h,z,i]=1: - 1e+08 y[j0_l4_i4]
   - 1e+08 y[j3_l3_i4] - 1e+08 x[j1l10_4_j2l23_3] + s[j0_l4_i4]
   - s[j3_l3_i4] >= -2.99998362e+08
 precedence_between_0,4_to_3,3_if_x_[j,l,h,z,i]=0: - 1e+08 y[j0_l4_i4]
   - 1e+08 y[j3_l3_i4] + 1e+08 x[j1l10_4_j2l23_3] - s[j0_l4_i4]
   + s[j3_l3_i4] >= -1.99998461e+08
 precedence_between_4,4_to_0,4_if_x_[j,l,h,z,i]=1: - 1e+08 y[j0_l4_i4]
   - 1e+08 y[j4_l4_i4] - 1e+08 x[j1l10_4_j2l24_4] + s[j0_l4_i4]
   - s[j4_l4_i4] >= -2.99996961e+08
 precedence_between_0,4_to_4,4_if_x_[j,l,h,z,i]=0: - 1e+08 y[j0_l4_i4]
   - 1e+08 y[j4_l4_i4] + 1e+08 x[j1l10_4_j2l24_4] - s[j0_l4_i4]
   + s[j4_l4_i4] >= -1.9999852e+08
 precedence_between_2,2_to_1,0_if_x_[j,l,h,z,i]=1: - 1e+08 y[j1_l0_i3]
   - 1e+08 y[j2_l2_i3] - 1e+08 x[j1l11_0_j2l22_2] + s[j1_l0_i3]
   - s[j2_l2_i3] >= -2.99995561e+08
 precedence_between_1,0_to_2,2_if_x_[j,l,h,z,i]=0: - 1e+08 y[j1_l0_i3]
   - 1e+08 y[j2_l2_i3] + 1e+08 x[j1l11_0_j2l22_2] - s[j1_l0_i3]
   + s[j2_l2_i3] >= -1.99998401e+08
 precedence_between_3,1_to_1,0_if_x_[j,l,h,z,i]=1: - 1e+08 y[j1_l0_i3]
   - 1e+08 y[j3_l1_i3] - 1e+08 x[j1l11_0_j2l23_1] + s[j1_l0_i3]
   - s[j3_l1_i3] >= -2.99996981e+08
 precedence_between_1,0_to_3,1_if_x_[j,l,h,z,i]=0: - 1e+08 y[j1_l0_i3]
   - 1e+08 y[j3_l1_i3] + 1e+08 x[j1l11_0_j2l23_1] - s[j1_l0_i3]
   + s[j3_l1_i3] >= -1.99998381e+08
 precedence_between_4,1_to_1,0_if_x_[j,l,h,z,i]=1: - 1e+08 y[j1_l0_i3]
   - 1e+08 y[j4_l1_i3] - 1e+08 x[j1l11_0_j2l24_1] + s[j1_l0_i3]
   - s[j4_l1_i3] >= -2.99998461e+08
 precedence_between_1,0_to_4,1_if_x_[j,l,h,z,i]=0: - 1e+08 y[j1_l0_i3]
   - 1e+08 y[j4_l1_i3] + 1e+08 x[j1l11_0_j2l24_1] - s[j1_l0_i3]
   + s[j4_l1_i3] >= -1.9999852e+08
 precedence_between_2,3_to_1,1_if_x_[j,l,h,z,i]=1: - 1e+08 y[j1_l1_i1]
   - 1e+08 y[j2_l3_i1] - 1e+08 x[j1l11_1_j2l22_3] + s[j1_l1_i1]
   - s[j2_l3_i1] >= -2.99996941e+08
 precedence_between_1,1_to_2,3_if_x_[j,l,h,z,i]=0: - 1e+08 y[j1_l1_i1]
   - 1e+08 y[j2_l3_i1] + 1e+08 x[j1l11_1_j2l22_3] - s[j1_l1_i1]
   + s[j2_l3_i1] >= -1.99998441e+08
 precedence_between_2,1_to_1,2_if_x_[j,l,h,z,i]=1: - 1e+08 y[j1_l2_i2]
   - 1e+08 y[j2_l1_i2] - 1e+08 x[j1l11_2_j2l22_1] + s[j1_l2_i2]
   - s[j2_l1_i2] >= -2.999985e+08
 precedence_between_1,2_to_2,1_if_x_[j,l,h,z,i]=0: - 1e+08 y[j1_l2_i2]
   - 1e+08 y[j2_l1_i2] + 1e+08 x[j1l11_2_j2l22_1] - s[j1_l2_i2]
   + s[j2_l1_i2] >= -1.99998381e+08
 precedence_between_3,2_to_1,2_if_x_[j,l,h,z,i]=1: - 1e+08 y[j1_l2_i2]
   - 1e+08 y[j3_l2_i2] - 1e+08 x[j1l11_2_j2l23_2] + s[j1_l2_i2]
   - s[j3_l2_i2] >= -2.9999706e+08
 precedence_between_1,2_to_3,2_if_x_[j,l,h,z,i]=0: - 1e+08 y[j1_l2_i2]
   - 1e+08 y[j3_l2_i2] + 1e+08 x[j1l11_2_j2l23_2] - s[j1_l2_i2]
   + s[j3_l2_i2] >= -1.99998401e+08
 precedence_between_4,3_to_1,2_if_x_[j,l,h,z,i]=1: - 1e+08 y[j1_l2_i2]
   - 1e+08 y[j4_l3_i2] - 1e+08 x[j1l11_2_j2l24_3] + s[j1_l2_i2]
   - s[j4_l3_i2] >= -2.9999852e+08
 precedence_between_1,2_to_4,3_if_x_[j,l,h,z,i]=0: - 1e+08 y[j1_l2_i2]
   - 1e+08 y[j4_l3_i2] + 1e+08 x[j1l11_2_j2l24_3] - s[j1_l2_i2]
   + s[j4_l3_i2] >= -1.99998401e+08
 precedence_between_2,0_to_1,3_if_x_[j,l,h,z,i]=1: - 1e+08 y[j1_l3_i0]
   - 1e+08 y[j2_l0_i0] - 1e+08 x[j1l11_3_j2l22_0] + s[j1_l3_i0]
   - s[j2_l0_i0] >= -2.99998441e+08
 precedence_between_1,3_to_2,0_if_x_[j,l,h,z,i]=0: - 1e+08 y[j1_l3_i0]
   - 1e+08 y[j2_l0_i0] + 1e+08 x[j1l11_3_j2l22_0] - s[j1_l3_i0]
   + s[j2_l0_i0] >= -1.9999854e+08
 precedence_between_3,0_to_1,3_if_x_[j,l,h,z,i]=1: - 1e+08 y[j1_l3_i0]
   - 1e+08 y[j3_l0_i0] - 1e+08 x[j1l11_3_j2l23_0] + s[j1_l3_i0]
   - s[j3_l0_i0] >= -2.99996941e+08
 precedence_between_1,3_to_3,0_if_x_[j,l,h,z,i]=0: - 1e+08 y[j1_l3_i0]
   - 1e+08 y[j3_l0_i0] + 1e+08 x[j1l11_3_j2l23_0] - s[j1_l3_i0]
   + s[j3_l0_i0] >= -1.99998381e+08
 precedence_between_4,0_to_1,3_if_x_[j,l,h,z,i]=1: - 1e+08 y[j1_l3_i0]
   - 1e+08 y[j4_l0_i0] - 1e+08 x[j1l11_3_j2l24_0] + s[j1_l3_i0]
   - s[j4_l0_i0] >= -2.999985e+08
 precedence_between_1,3_to_4,0_if_x_[j,l,h,z,i]=0: - 1e+08 y[j1_l3_i0]
   - 1e+08 y[j4_l0_i0] + 1e+08 x[j1l11_3_j2l24_0] - s[j1_l3_i0]
   + s[j4_l0_i0] >= -1.9999854e+08
 precedence_between_4,2_to_1,3_if_x_[j,l,h,z,i]=1: - 1e+08 y[j1_l3_i0]
   - 1e+08 y[j4_l2_i0] - 1e+08 x[j1l11_3_j2l24_2] + s[j1_l3_i0]
   - s[j4_l2_i0] >= -2.99998421e+08
 precedence_between_1,3_to_4,2_if_x_[j,l,h,z,i]=0: - 1e+08 y[j1_l3_i0]
   - 1e+08 y[j4_l2_i0] + 1e+08 x[j1l11_3_j2l24_2] - s[j1_l3_i0]
   + s[j4_l2_i0] >= -1.9999852e+08
 precedence_between_2,4_to_1,4_if_x_[j,l,h,z,i]=1: - 1e+08 y[j1_l4_i4]
   - 1e+08 y[j2_l4_i4] - 1e+08 x[j1l11_4_j2l22_4] + s[j1_l4_i4]
   - s[j2_l4_i4] >= -2.99998381e+08
 precedence_between_1,4_to_2,4_if_x_[j,l,h,z,i]=0: - 1e+08 y[j1_l4_i4]
   - 1e+08 y[j2_l4_i4] + 1e+08 x[j1l11_4_j2l22_4] - s[j1_l4_i4]
   + s[j2_l4_i4] >= -1.99998362e+08
 precedence_between_3,3_to_1,4_if_x_[j,l,h,z,i]=1: - 1e+08 y[j1_l4_i4]
   - 1e+08 y[j3_l3_i4] - 1e+08 x[j1l11_4_j2l23_3] + s[j1_l4_i4]
   - s[j3_l3_i4] >= -2.99998461e+08
 precedence_between_1,4_to_3,3_if_x_[j,l,h,z,i]=0: - 1e+08 y[j1_l4_i4]
   - 1e+08 y[j3_l3_i4] + 1e+08 x[j1l11_4_j2l23_3] - s[j1_l4_i4]
   + s[j3_l3_i4] >= -1.99998401e+08
 precedence_between_4,4_to_1,4_if_x_[j,l,h,z,i]=1: - 1e+08 y[j1_l4_i4]
   - 1e+08 y[j4_l4_i4] - 1e+08 x[j1l11_4_j2l24_4] + s[j1_l4_i4]
   - s[j4_l4_i4] >= -2.99996922e+08
 precedence_between_1,4_to_4,4_if_x_[j,l,h,z,i]=0: - 1e+08 y[j1_l4_i4]
   - 1e+08 y[j4_l4_i4] + 1e+08 x[j1l11_4_j2l24_4] - s[j1_l4_i4]
   + s[j4_l4_i4] >= -1.99998441e+08
 precedence_between_3,0_to_2,0_if_x_[j,l,h,z,i]=1: - 1e+08 y[j2_l0_i0]
   - 1e+08 y[j3_l0_i0] - 1e+08 x[j1l12_0_j2l23_0] + s[j2_l0_i0]
   - s[j3_l0_i0] >= -2.99996922e+08
 precedence_between_2,0_to_3,0_if_x_[j,l,h,z,i]=0: - 1e+08 y[j2_l0_i0]
   - 1e+08 y[j3_l0_i0] + 1e+08 x[j1l12_0_j2l23_0] - s[j2_l0_i0]
   + s[j3_l0_i0] >= -1.9999848e+08
 precedence_between_4,0_to_2,0_if_x_[j,l,h,z,i]=1: - 1e+08 y[j2_l0_i0]
   - 1e+08 y[j4_l0_i0] - 1e+08 x[j1l12_0_j2l24_0] + s[j2_l0_i0]
   - s[j4_l0_i0] >= -2.9999854e+08
 precedence_between_2,0_to_4,0_if_x_[j,l,h,z,i]=0: - 1e+08 y[j2_l0_i0]
   - 1e+08 y[j4_l0_i0] + 1e+08 x[j1l12_0_j2l24_0] - s[j2_l0_i0]
   + s[j4_l0_i0] >= -1.99998362e+08
 precedence_between_4,2_to_2,0_if_x_[j,l,h,z,i]=1: - 1e+08 y[j2_l0_i0]
   - 1e+08 y[j4_l2_i0] - 1e+08 x[j1l12_0_j2l24_2] + s[j2_l0_i0]
   - s[j4_l2_i0] >= -2.99998362e+08
 precedence_between_2,0_to_4,2_if_x_[j,l,h,z,i]=0: - 1e+08 y[j2_l0_i0]
   - 1e+08 y[j4_l2_i0] + 1e+08 x[j1l12_0_j2l24_2] - s[j2_l0_i0]
   + s[j4_l2_i0] >= -1.9999848e+08
 precedence_between_3,2_to_2,1_if_x_[j,l,h,z,i]=1: - 1e+08 y[j2_l1_i2]
   - 1e+08 y[j3_l2_i2] - 1e+08 x[j1l12_1_j2l23_2] + s[j2_l1_i2]
   - s[j3_l2_i2] >= -2.9999704e+08
 precedence_between_2,1_to_3,2_if_x_[j,l,h,z,i]=0: - 1e+08 y[j2_l1_i2]
   - 1e+08 y[j3_l2_i2] + 1e+08 x[j1l12_1_j2l23_2] - s[j2_l1_i2]
   + s[j3_l2_i2] >= -1.99998401e+08
 precedence_between_4,3_to_2,1_if_x_[j,l,h,z,i]=1: - 1e+08 y[j2_l1_i2]
   - 1e+08 y[j4_l3_i2] - 1e+08 x[j1l12_1_j2l24_3] + s[j2_l1_i2]
   - s[j4_l3_i2] >= -2.99998441e+08
 precedence_between_2,1_to_4,3_if_x_[j,l,h,z,i]=0: - 1e+08 y[j2_l1_i2]
   - 1e+08 y[j4_l3_i2] + 1e+08 x[j1l12_1_j2l24_3] - s[j2_l1_i2]
   + s[j4_l3_i2] >= -1.9999852e+08
 precedence_between_3,1_to_2,2_if_x_[j,l,h,z,i]=1: - 1e+08 y[j2_l2_i3]
   - 1e+08 y[j3_l1_i3] - 1e+08 x[j1l12_2_j2l23_1] + s[j2_l2_i3]
   - s[j3_l1_i3] >= -2.99997001e+08
 precedence_between_2,2_to_3,1_if_x_[j,l,h,z,i]=0: - 1e+08 y[j2_l2_i3]
   - 1e+08 y[j3_l1_i3] + 1e+08 x[j1l12_2_j2l23_1] - s[j2_l2_i3]
   + s[j3_l1_i3] >= -1.99995521e+08
 precedence_between_4,1_to_2,2_if_x_[j,l,h,z,i]=1: - 1e+08 y[j2_l2_i3]
   - 1e+08 y[j4_l1_i3] - 1e+08 x[j1l12_2_j2l24_1] + s[j2_l2_i3]
   - s[j4_l1_i3] >= -2.99998381e+08
 precedence_between_2,2_to_4,1_if_x_[j,l,h,z,i]=0: - 1e+08 y[j2_l2_i3]
   - 1e+08 y[j4_l1_i3] + 1e+08 x[j1l12_2_j2l24_1] - s[j2_l2_i3]
   + s[j4_l1_i3] >= -1.9999564e+08
 precedence_between_3,3_to_2,4_if_x_[j,l,h,z,i]=1: - 1e+08 y[j2_l4_i4]
   - 1e+08 y[j3_l3_i4] - 1e+08 x[j1l12_4_j2l23_3] + s[j2_l4_i4]
   - s[j3_l3_i4] >= -2.99998401e+08
 precedence_between_2,4_to_3,3_if_x_[j,l,h,z,i]=0: - 1e+08 y[j2_l4_i4]
   - 1e+08 y[j3_l3_i4] + 1e+08 x[j1l12_4_j2l23_3] - s[j2_l4_i4]
   + s[j3_l3_i4] >= -1.99998381e+08
 precedence_between_4,4_to_2,4_if_x_[j,l,h,z,i]=1: - 1e+08 y[j2_l4_i4]
   - 1e+08 y[j4_l4_i4] - 1e+08 x[j1l12_4_j2l24_4] + s[j2_l4_i4]
   - s[j4_l4_i4] >= -2.99997001e+08
 precedence_between_2,4_to_4,4_if_x_[j,l,h,z,i]=0: - 1e+08 y[j2_l4_i4]
   - 1e+08 y[j4_l4_i4] + 1e+08 x[j1l12_4_j2l24_4] - s[j2_l4_i4]
   + s[j4_l4_i4] >= -1.9999848e+08
 precedence_between_4,0_to_3,0_if_x_[j,l,h,z,i]=1: - 1e+08 y[j3_l0_i0]
   - 1e+08 y[j4_l0_i0] - 1e+08 x[j1l13_0_j2l24_0] + s[j3_l0_i0]
   - s[j4_l0_i0] >= -2.9999852e+08
 precedence_between_3,0_to_4,0_if_x_[j,l,h,z,i]=0: - 1e+08 y[j3_l0_i0]
   - 1e+08 y[j4_l0_i0] + 1e+08 x[j1l13_0_j2l24_0] - s[j3_l0_i0]
   + s[j4_l0_i0] >= -1.99996961e+08
 precedence_between_4,2_to_3,0_if_x_[j,l,h,z,i]=1: - 1e+08 y[j3_l0_i0]
   - 1e+08 y[j4_l2_i0] - 1e+08 x[j1l13_0_j2l24_2] + s[j3_l0_i0]
   - s[j4_l2_i0] >= -2.99998461e+08
 precedence_between_3,0_to_4,2_if_x_[j,l,h,z,i]=0: - 1e+08 y[j3_l0_i0]
   - 1e+08 y[j4_l2_i0] + 1e+08 x[j1l13_0_j2l24_2] - s[j3_l0_i0]
   + s[j4_l2_i0] >= -1.9999708e+08
 precedence_between_4,1_to_3,1_if_x_[j,l,h,z,i]=1: - 1e+08 y[j3_l1_i3]
   - 1e+08 y[j4_l1_i3] - 1e+08 x[j1l13_1_j2l24_1] + s[j3_l1_i3]
   - s[j4_l1_i3] >= -2.9999848e+08
 precedence_between_3,1_to_4,1_if_x_[j,l,h,z,i]=0: - 1e+08 y[j3_l1_i3]
   - 1e+08 y[j4_l1_i3] + 1e+08 x[j1l13_1_j2l24_1] - s[j3_l1_i3]
   + s[j4_l1_i3] >= -1.9999704e+08
 precedence_between_4,3_to_3,2_if_x_[j,l,h,z,i]=1: - 1e+08 y[j3_l2_i2]
   - 1e+08 y[j4_l3_i2] - 1e+08 x[j1l13_2_j2l24_3] + s[j3_l2_i2]
   - s[j4_l3_i2] >= -2.99998362e+08
 precedence_between_3,2_to_4,3_if_x_[j,l,h,z,i]=0: - 1e+08 y[j3_l2_i2]
   - 1e+08 y[j4_l3_i2] + 1e+08 x[j1l13_2_j2l24_3] - s[j3_l2_i2]
   + s[j4_l3_i2] >= -1.999971e+08
 precedence_between_4,4_to_3,3_if_x_[j,l,h,z,i]=1: - 1e+08 y[j3_l3_i4]
   - 1e+08 y[j4_l4_i4] - 1e+08 x[j1l13_3_j2l24_4] + s[j3_l3_i4]
   - s[j4_l4_i4] >= -2.9999704e+08
 precedence_between_3,3_to_4,4_if_x_[j,l,h,z,i]=0: - 1e+08 y[j3_l3_i4]
   - 1e+08 y[j4_l4_i4] + 1e+08 x[j1l13_3_j2l24_4] - s[j3_l3_i4]
   + s[j4_l4_i4] >= -1.9999852e+08
 precedence_between_4,2_to_4,0_if_x_[j,l,h,z,i]=1: - 1e+08 y[j4_l0_i0]
   - 1e+08 y[j4_l2_i0] - 1e+08 x[j1l14_0_j2l24_2] + s[j4_l0_i0]
   - s[j4_l2_i0] >= -2.99998401e+08
 precedence_between_4,0_to_4,2_if_x_[j,l,h,z,i]=0: - 1e+08 y[j4_l0_i0]
   - 1e+08 y[j4_l2_i0] + 1e+08 x[j1l14_0_j2l24_2] - s[j4_l0_i0]
   + s[j4_l2_i0] >= -1.99998421e+08
 precedence_between_4,0_to_4,2_if_x_[j,l,h,z,i]=1: - 1e+08 y[j4_l0_i0]
   - 1e+08 y[j4_l2_i0] - 1e+08 x[j1l14_2_j2l24_0] - s[j4_l0_i0]
   + s[j4_l2_i0] >= -2.99998421e+08
 precedence_between_4,2_to_4,0_if_x_[j,l,h,z,i]=0: - 1e+08 y[j4_l0_i0]
   - 1e+08 y[j4_l2_i0] + 1e+08 x[j1l14_2_j2l24_0] + s[j4_l0_i0]
   - s[j4_l2_i0] >= -1.99998401e+08
 start_time_domain_job0_stage0_machine1_constraint: s[j0_l0_i1] >= 0
 start_time_domain_job0_stage1_machine0_constraint: s[j0_l1_i0] >= 0
 start_time_domain_job0_stage2_machine2_constraint: s[j0_l2_i2] >= 0
 start_time_domain_job0_stage3_machine3_constraint: s[j0_l3_i3] >= 0
 start_time_domain_job0_stage4_machine4_constraint: s[j0_l4_i4] >= 0
 initial_start_time_job0_stage0_machine4_constraint: - 480 y[j0_l4_i4]
   + s[j0_l4_i4] >= 0
 start_time_domain_job1_stage0_machine3_constraint: s[j1_l0_i3] >= 0
 start_time_domain_job1_stage1_machine1_constraint: s[j1_l1_i1] >= 0
 start_time_domain_job1_stage2_machine2_constraint: s[j1_l2_i2] >= 0
 start_time_domain_job1_stage3_machine0_constraint: s[j1_l3_i0] >= 0
 start_time_domain_job1_stage4_machine4_constraint: s[j1_l4_i4] >= 0
 initial_start_time_job1_stage0_machine4_constraint: - 480 y[j1_l4_i4]
   + s[j1_l4_i4] >= 0
 start_time_domain_job2_stage0_machine0_constraint: s[j2_l0_i0] >= 0
 start_time_domain_job2_stage1_machine2_constraint: s[j2_l1_i2] >= 0
 start_time_domain_job2_stage2_machine3_constraint: s[j2_l2_i3] >= 0
 start_time_domain_job2_stage3_machine1_constraint: s[j2_l3_i1] >= 0
 start_time_domain_job2_stage4_machine4_constraint: s[j2_l4_i4] >= 0
 initial_start_time_job2_stage0_machine4_constraint: - 960 y[j2_l4_i4]
   + s[j2_l4_i4] >= 0
 start_time_domain_job3_stage0_machine0_constraint: s[j3_l0_i0] >= 0
 start_time_domain_job3_stage1_machine3_constraint: s[j3_l1_i3] >= 0
 start_time_domain_job3_stage2_machine2_constraint: s[j3_l2_i2] >= 0
 start_time_domain_job3_stage3_machine4_constraint: s[j3_l3_i4] >= 0
 initial_start_time_job3_stage0_machine4_constraint: - 960 y[j3_l3_i4]
   + s[j3_l3_i4] >= 0
 start_time_domain_job4_stage0_machine0_constraint: s[j4_l0_i0] >= 0
 start_time_domain_job4_stage1_machine3_constraint: s[j4_l1_i3] >= 0
 start_time_domain_job4_stage2_machine0_constraint: s[j4_l2_i0] >= 0
 start_time_domain_job4_stage3_machine2_constraint: s[j4_l3_i2] >= 0
 start_time_domain_job4_stage4_machine4_constraint: s[j4_l4_i4] >= 0
 initial_start_time_job4_stage0_machine4_constraint: - 480 y[j4_l4_i4]
   + s[j4_l4_i4] >= 0
 R175: - 1440 y[j0_l1_i0] + s[j0_l0_i1] - s[j0_l1_i0] >= 0
 R176: - 2880 y[j0_l2_i2] + s[j0_l1_i0] - s[j0_l2_i2] >= 0
 R177: - 2880 y[j0_l3_i3] + s[j0_l2_i2] - s[j0_l3_i3] >= 0
 R178: - 1440 y[j0_l4_i4] + s[j0_l3_i3] - s[j0_l4_i4] >= 0
 R179: - 1440 y[j1_l1_i1] + s[j1_l0_i3] - s[j1_l1_i1] >= 0
 R180: - 1440 y[j1_l2_i2] + s[j1_l1_i1] - s[j1_l2_i2] >= 0
 R181: - 1440 y[j1_l3_i0] + s[j1_l2_i2] - s[j1_l3_i0] >= 0
 R182: - 1440 y[j1_l4_i4] + s[j1_l3_i0] - s[j1_l4_i4] >= 0
 R183: - 1440 y[j2_l1_i2] + s[j2_l0_i0] - s[j2_l1_i2] >= 0
 R184: - 4320 y[j2_l2_i3] + s[j2_l1_i2] - s[j2_l2_i3] >= 0
 R185: - 2880 y[j2_l3_i1] + s[j2_l2_i3] - s[j2_l3_i1] >= 0
 R186: - 1440 y[j2_l4_i4] + s[j2_l3_i1] - s[j2_l4_i4] >= 0
 R187: - 2880 y[j3_l1_i3] + s[j3_l0_i0] - s[j3_l1_i3] >= 0
 R188: - 2880 y[j3_l2_i2] + s[j3_l1_i3] - s[j3_l2_i2] >= 0
 R189: - 1440 y[j3_l3_i4] + s[j3_l2_i2] - s[j3_l3_i4] >= 0
 R190: - 1440 y[j4_l1_i3] + s[j4_l0_i0] - s[j4_l1_i3] >= 0
 R191: - 1440 y[j4_l2_i0] + s[j4_l1_i3] - s[j4_l2_i0] >= 0
 R192: - 1440 y[j4_l3_i2] + s[j4_l2_i0] - s[j4_l3_i2] >= 0
 R193: - 2880 y[j4_l4_i4] + s[j4_l3_i2] - s[j4_l4_i4] >= 0
 auxiliaryOF_constraint: 1440 y[j0_l0_i1] + s[j0_l0_i1]
   - 1e+08 b[job_0,_stage_0,_machine_1] >= -9.99952e+07
 auxiliaryOF_constraint: 1440 y[j0_l0_i1] + s[j0_l0_i1]
   - 1e+08 b[job_0,_stage_0,_machine_1] <= 4800
 auxiliaryOF_constraint: 1440 y[j1_l0_i3] + s[j1_l0_i3]
   - 1e+08 b[job_1,_stage_0,_machine_3] >= -9.999472e+07
 auxiliaryOF_constraint: 1440 y[j1_l0_i3] + s[j1_l0_i3]
   - 1e+08 b[job_1,_stage_0,_machine_3] <= 5280
 auxiliaryOF_constraint: 1440 y[j2_l0_i0] + s[j2_l0_i0]
   - 1e+08 b[job_2,_stage_0,_machine_0] >= -9.999424e+07
 auxiliaryOF_constraint: 1440 y[j2_l0_i0] + s[j2_l0_i0]
   - 1e+08 b[job_2,_stage_0,_machine_0] <= 5760
 auxiliaryOF_constraint: 2880 y[j3_l0_i0] + s[j3_l0_i0]
   - 1e+08 b[job_3,_stage_0,_machine_0] >= -9.999424e+07
 auxiliaryOF_constraint: 2880 y[j3_l0_i0] + s[j3_l0_i0]
   - 1e+08 b[job_3,_stage_0,_machine_0] <= 5760
 auxiliaryOF_constraint: 1440 y[j4_l0_i0] + s[j4_l0_i0]
   - 1e+08 b[job_4,_stage_0,_machine_0] >= -9.999472e+07
 auxiliaryOF_constraint: 1440 y[j4_l0_i0] + s[j4_l0_i0]
   - 1e+08 b[job_4,_stage_0,_machine_0] <= 5280
 OF_constraint: Z_FO + 3360 b[job_0,_stage_0,_machine_1]
   + 3840 b[job_1,_stage_0,_machine_3] + 4320 b[job_2,_stage_0,_machine_0]
   + 2880 b[job_3,_stage_0,_machine_0] + 3840 b[job_4,_stage_0,_machine_0]
   + [ - s[j0_l0_i1] * b[job_0,_stage_0,_machine_1]
   - s[j1_l0_i3] * b[job_1,_stage_0,_machine_3]
   - s[j2_l0_i0] * b[job_2,_stage_0,_machine_0]
   - s[j3_l0_i0] * b[job_3,_stage_0,_machine_0]
   - s[j4_l0_i0] * b[job_4,_stage_0,_machine_0] ] >= 0
Bounds
Binaries
 y[j0_l0_i1] y[j0_l1_i0] y[j0_l2_i2] y[j0_l3_i3] y[j0_l4_i4] y[j1_l0_i3]
 y[j1_l1_i1] y[j1_l2_i2] y[j1_l3_i0] y[j1_l4_i4] y[j2_l0_i0] y[j2_l1_i2]
 y[j2_l2_i3] y[j2_l3_i1] y[j2_l4_i4] y[j3_l0_i0] y[j3_l1_i3] y[j3_l2_i2]
 y[j3_l3_i4] y[j4_l0_i0] y[j4_l1_i3] y[j4_l2_i0] y[j4_l3_i2] y[j4_l4_i4]
 x[j1l10_0_j2l20_0] x[j1l10_0_j2l20_1] x[j1l10_0_j2l20_2]
 x[j1l10_0_j2l20_3] x[j1l10_0_j2l20_4] x[j1l10_0_j2l21_0]
 x[j1l10_0_j2l21_1] x[j1l10_0_j2l21_2] x[j1l10_0_j2l21_3]
 x[j1l10_0_j2l21_4] x[j1l10_0_j2l22_0] x[j1l10_0_j2l22_1]
 x[j1l10_0_j2l22_2] x[j1l10_0_j2l22_3] x[j1l10_0_j2l22_4]
 x[j1l10_0_j2l23_0] x[j1l10_0_j2l23_1] x[j1l10_0_j2l23_2]
 x[j1l10_0_j2l23_3] x[j1l10_0_j2l24_0] x[j1l10_0_j2l24_1]
 x[j1l10_0_j2l24_2] x[j1l10_0_j2l24_3] x[j1l10_0_j2l24_4]
 x[j1l10_1_j2l20_0] x[j1l10_1_j2l20_1] x[j1l10_1_j2l20_2]
 x[j1l10_1_j2l20_3] x[j1l10_1_j2l20_4] x[j1l10_1_j2l21_0]
 x[j1l10_1_j2l21_1] x[j1l10_1_j2l21_2] x[j1l10_1_j2l21_3]
 x[j1l10_1_j2l21_4] x[j1l10_1_j2l22_0] x[j1l10_1_j2l22_1]
 x[j1l10_1_j2l22_2] x[j1l10_1_j2l22_3] x[j1l10_1_j2l22_4]
 x[j1l10_1_j2l23_0] x[j1l10_1_j2l23_1] x[j1l10_1_j2l23_2]
 x[j1l10_1_j2l23_3] x[j1l10_1_j2l24_0] x[j1l10_1_j2l24_1]
 x[j1l10_1_j2l24_2] x[j1l10_1_j2l24_3] x[j1l10_1_j2l24_4]
 x[j1l10_2_j2l20_0] x[j1l10_2_j2l20_1] x[j1l10_2_j2l20_2]
 x[j1l10_2_j2l20_3] x[j1l10_2_j2l20_4] x[j1l10_2_j2l21_0]
 x[j1l10_2_j2l21_1] x[j1l10_2_j2l21_2] x[j1l10_2_j2l21_3]
 x[j1l10_2_j2l21_4] x[j1l10_2_j2l22_0] x[j1l10_2_j2l22_1]
 x[j1l10_2_j2l22_2] x[j1l10_2_j2l22_3] x[j1l10_2_j2l22_4]
 x[j1l10_2_j2l23_0] x[j1l10_2_j2l23_1] x[j1l10_2_j2l23_2]
 x[j1l10_2_j2l23_3] x[j1l10_2_j2l24_0] x[j1l10_2_j2l24_1]
 x[j1l10_2_j2l24_2] x[j1l10_2_j2l24_3] x[j1l10_2_j2l24_4]
 x[j1l10_3_j2l20_0] x[j1l10_3_j2l20_1] x[j1l10_3_j2l20_2]
 x[j1l10_3_j2l20_3] x[j1l10_3_j2l20_4] x[j1l10_3_j2l21_0]
 x[j1l10_3_j2l21_1] x[j1l10_3_j2l21_2] x[j1l10_3_j2l21_3]
 x[j1l10_3_j2l21_4] x[j1l10_3_j2l22_0] x[j1l10_3_j2l22_1]
 x[j1l10_3_j2l22_2] x[j1l10_3_j2l22_3] x[j1l10_3_j2l22_4]
 x[j1l10_3_j2l23_0] x[j1l10_3_j2l23_1] x[j1l10_3_j2l23_2]
 x[j1l10_3_j2l23_3] x[j1l10_3_j2l24_0] x[j1l10_3_j2l24_1]
 x[j1l10_3_j2l24_2] x[j1l10_3_j2l24_3] x[j1l10_3_j2l24_4]
 x[j1l10_4_j2l20_0] x[j1l10_4_j2l20_1] x[j1l10_4_j2l20_2]
 x[j1l10_4_j2l20_3] x[j1l10_4_j2l20_4] x[j1l10_4_j2l21_0]
 x[j1l10_4_j2l21_1] x[j1l10_4_j2l21_2] x[j1l10_4_j2l21_3]
 x[j1l10_4_j2l21_4] x[j1l10_4_j2l22_0] x[j1l10_4_j2l22_1]
 x[j1l10_4_j2l22_2] x[j1l10_4_j2l22_3] x[j1l10_4_j2l22_4]
 x[j1l10_4_j2l23_0] x[j1l10_4_j2l23_1] x[j1l10_4_j2l23_2]
 x[j1l10_4_j2l23_3] x[j1l10_4_j2l24_0] x[j1l10_4_j2l24_1]
 x[j1l10_4_j2l24_2] x[j1l10_4_j2l24_3] x[j1l10_4_j2l24_4]
 x[j1l11_0_j2l21_0] x[j1l11_0_j2l21_1] x[j1l11_0_j2l21_2]
 x[j1l11_0_j2l21_3] x[j1l11_0_j2l21_4] x[j1l11_0_j2l22_0]
 x[j1l11_0_j2l22_1] x[j1l11_0_j2l22_2] x[j1l11_0_j2l22_3]
 x[j1l11_0_j2l22_4] x[j1l11_0_j2l23_0] x[j1l11_0_j2l23_1]
 x[j1l11_0_j2l23_2] x[j1l11_0_j2l23_3] x[j1l11_0_j2l24_0]
 x[j1l11_0_j2l24_1] x[j1l11_0_j2l24_2] x[j1l11_0_j2l24_3]
 x[j1l11_0_j2l24_4] x[j1l11_1_j2l21_0] x[j1l11_1_j2l21_1]
 x[j1l11_1_j2l21_2] x[j1l11_1_j2l21_3] x[j1l11_1_j2l21_4]
 x[j1l11_1_j2l22_0] x[j1l11_1_j2l22_1] x[j1l11_1_j2l22_2]
 x[j1l11_1_j2l22_3] x[j1l11_1_j2l22_4] x[j1l11_1_j2l23_0]
 x[j1l11_1_j2l23_1] x[j1l11_1_j2l23_2] x[j1l11_1_j2l23_3]
 x[j1l11_1_j2l24_0] x[j1l11_1_j2l24_1] x[j1l11_1_j2l24_2]
 x[j1l11_1_j2l24_3] x[j1l11_1_j2l24_4] x[j1l11_2_j2l21_0]
 x[j1l11_2_j2l21_1] x[j1l11_2_j2l21_2] x[j1l11_2_j2l21_3]
 x[j1l11_2_j2l21_4] x[j1l11_2_j2l22_0] x[j1l11_2_j2l22_1]
 x[j1l11_2_j2l22_2] x[j1l11_2_j2l22_3] x[j1l11_2_j2l22_4]
 x[j1l11_2_j2l23_0] x[j1l11_2_j2l23_1] x[j1l11_2_j2l23_2]
 x[j1l11_2_j2l23_3] x[j1l11_2_j2l24_0] x[j1l11_2_j2l24_1]
 x[j1l11_2_j2l24_2] x[j1l11_2_j2l24_3] x[j1l11_2_j2l24_4]
 x[j1l11_3_j2l21_0] x[j1l11_3_j2l21_1] x[j1l11_3_j2l21_2]
 x[j1l11_3_j2l21_3] x[j1l11_3_j2l21_4] x[j1l11_3_j2l22_0]
 x[j1l11_3_j2l22_1] x[j1l11_3_j2l22_2] x[j1l11_3_j2l22_3]
 x[j1l11_3_j2l22_4] x[j1l11_3_j2l23_0] x[j1l11_3_j2l23_1]
 x[j1l11_3_j2l23_2] x[j1l11_3_j2l23_3] x[j1l11_3_j2l24_0]
 x[j1l11_3_j2l24_1] x[j1l11_3_j2l24_2] x[j1l11_3_j2l24_3]
 x[j1l11_3_j2l24_4] x[j1l11_4_j2l21_0] x[j1l11_4_j2l21_1]
 x[j1l11_4_j2l21_2] x[j1l11_4_j2l21_3] x[j1l11_4_j2l21_4]
 x[j1l11_4_j2l22_0] x[j1l11_4_j2l22_1] x[j1l11_4_j2l22_2]
 x[j1l11_4_j2l22_3] x[j1l11_4_j2l22_4] x[j1l11_4_j2l23_0]
 x[j1l11_4_j2l23_1] x[j1l11_4_j2l23_2] x[j1l11_4_j2l23_3]
 x[j1l11_4_j2l24_0] x[j1l11_4_j2l24_1] x[j1l11_4_j2l24_2]
 x[j1l11_4_j2l24_3] x[j1l11_4_j2l24_4] x[j1l12_0_j2l22_0]
 x[j1l12_0_j2l22_1] x[j1l12_0_j2l22_2] x[j1l12_0_j2l22_3]
 x[j1l12_0_j2l22_4] x[j1l12_0_j2l23_0] x[j1l12_0_j2l23_1]
 x[j1l12_0_j2l23_2] x[j1l12_0_j2l23_3] x[j1l12_0_j2l24_0]
 x[j1l12_0_j2l24_1] x[j1l12_0_j2l24_2] x[j1l12_0_j2l24_3]
 x[j1l12_0_j2l24_4] x[j1l12_1_j2l22_0] x[j1l12_1_j2l22_1]
 x[j1l12_1_j2l22_2] x[j1l12_1_j2l22_3] x[j1l12_1_j2l22_4]
 x[j1l12_1_j2l23_0] x[j1l12_1_j2l23_1] x[j1l12_1_j2l23_2]
 x[j1l12_1_j2l23_3] x[j1l12_1_j2l24_0] x[j1l12_1_j2l24_1]
 x[j1l12_1_j2l24_2] x[j1l12_1_j2l24_3] x[j1l12_1_j2l24_4]
 x[j1l12_2_j2l22_0] x[j1l12_2_j2l22_1] x[j1l12_2_j2l22_2]
 x[j1l12_2_j2l22_3] x[j1l12_2_j2l22_4] x[j1l12_2_j2l23_0]
 x[j1l12_2_j2l23_1] x[j1l12_2_j2l23_2] x[j1l12_2_j2l23_3]
 x[j1l12_2_j2l24_0] x[j1l12_2_j2l24_1] x[j1l12_2_j2l24_2]
 x[j1l12_2_j2l24_3] x[j1l12_2_j2l24_4] x[j1l12_3_j2l22_0]
 x[j1l12_3_j2l22_1] x[j1l12_3_j2l22_2] x[j1l12_3_j2l22_3]
 x[j1l12_3_j2l22_4] x[j1l12_3_j2l23_0] x[j1l12_3_j2l23_1]
 x[j1l12_3_j2l23_2] x[j1l12_3_j2l23_3] x[j1l12_3_j2l24_0]
 x[j1l12_3_j2l24_1] x[j1l12_3_j2l24_2] x[j1l12_3_j2l24_3]
 x[j1l12_3_j2l24_4] x[j1l12_4_j2l22_0] x[j1l12_4_j2l22_1]
 x[j1l12_4_j2l22_2] x[j1l12_4_j2l22_3] x[j1l12_4_j2l22_4]
 x[j1l12_4_j2l23_0] x[j1l12_4_j2l23_1] x[j1l12_4_j2l23_2]
 x[j1l12_4_j2l23_3] x[j1l12_4_j2l24_0] x[j1l12_4_j2l24_1]
 x[j1l12_4_j2l24_2] x[j1l12_4_j2l24_3] x[j1l12_4_j2l24_4]
 x[j1l13_0_j2l23_0] x[j1l13_0_j2l23_1] x[j1l13_0_j2l23_2]
 x[j1l13_0_j2l23_3] x[j1l13_0_j2l24_0] x[j1l13_0_j2l24_1]
 x[j1l13_0_j2l24_2] x[j1l13_0_j2l24_3] x[j1l13_0_j2l24_4]
 x[j1l13_1_j2l23_0] x[j1l13_1_j2l23_1] x[j1l13_1_j2l23_2]
 x[j1l13_1_j2l23_3] x[j1l13_1_j2l24_0] x[j1l13_1_j2l24_1]
 x[j1l13_1_j2l24_2] x[j1l13_1_j2l24_3] x[j1l13_1_j2l24_4]
 x[j1l13_2_j2l23_0] x[j1l13_2_j2l23_1] x[j1l13_2_j2l23_2]
 x[j1l13_2_j2l23_3] x[j1l13_2_j2l24_0] x[j1l13_2_j2l24_1]
 x[j1l13_2_j2l24_2] x[j1l13_2_j2l24_3] x[j1l13_2_j2l24_4]
 x[j1l13_3_j2l23_0] x[j1l13_3_j2l23_1] x[j1l13_3_j2l23_2]
 x[j1l13_3_j2l23_3] x[j1l13_3_j2l24_0] x[j1l13_3_j2l24_1]
 x[j1l13_3_j2l24_2] x[j1l13_3_j2l24_3] x[j1l13_3_j2l24_4]
 x[j1l14_0_j2l24_0] x[j1l14_0_j2l24_1] x[j1l14_0_j2l24_2]
 x[j1l14_0_j2l24_3] x[j1l14_0_j2l24_4] x[j1l14_1_j2l24_0]
 x[j1l14_1_j2l24_1] x[j1l14_1_j2l24_2] x[j1l14_1_j2l24_3]
 x[j1l14_1_j2l24_4] x[j1l14_2_j2l24_0] x[j1l14_2_j2l24_1]
 x[j1l14_2_j2l24_2] x[j1l14_2_j2l24_3] x[j1l14_2_j2l24_4]
 x[j1l14_3_j2l24_0] x[j1l14_3_j2l24_1] x[j1l14_3_j2l24_2]
 x[j1l14_3_j2l24_3] x[j1l14_3_j2l24_4] x[j1l14_4_j2l24_0]
 x[j1l14_4_j2l24_1] x[j1l14_4_j2l24_2] x[j1l14_4_j2l24_3]
 x[j1l14_4_j2l24_4] b[job_0,_stage_0,_machine_1]
 b[job_1,_stage_0,_machine_3] b[job_2,_stage_0,_machine_0]
 b[job_3,_stage_0,_machine_0] b[job_4,_stage_0,_machine_0]
Generals
 s[j0_l0_i1] s[j0_l1_i0] s[j0_l2_i2] s[j0_l3_i3] s[j0_l4_i4] s[j1_l0_i3]
 s[j1_l1_i1] s[j1_l2_i2] s[j1_l3_i0] s[j1_l4_i4] s[j2_l0_i0] s[j2_l1_i2]
 s[j2_l2_i3] s[j2_l3_i1] s[j2_l4_i4] s[j3_l0_i0] s[j3_l1_i3] s[j3_l2_i2]
 s[j3_l3_i4] s[j4_l0_i0] s[j4_l1_i3] s[j4_l2_i0] s[j4_l3_i2] s[j4_l4_i4]
 Z_FO
End
